array [1..36] of var 1..6: x :: output_array([1..6, 1..6]);
constraint int_ne(x[1], x[2]);
constraint int_ne(x[1], x[3]);
constraint int_ne(x[1], x[4]);
constraint int_ne(x[1], x[5]);
constraint int_ne(x[1], x[6]);
constraint int_ne(x[1], x[7]);
constraint int_ne(x[1], x[13]);
constraint int_ne(x[1], x[19]);
constraint int_ne(x[1], x[25]);
constraint int_ne(x[1], x[31]);
constraint int_ne(x[2], x[3]);
constraint int_ne(x[2], x[4]);
constraint int_ne(x[2], x[5]);
constraint int_ne(x[2], x[6]);
constraint int_ne(x[2], x[8]);
constraint int_ne(x[2], x[14]);
constraint int_ne(x[2], x[20]);
constraint int_ne(x[2], x[26]);
constraint int_ne(x[2], x[32]);
constraint int_ne(x[3], x[4]);
constraint int_ne(x[3], x[5]);
constraint int_ne(x[3], x[6]);
constraint int_ne(x[3], x[9]);
constraint int_ne(x[3], x[15]);
constraint int_ne(x[3], x[21]);
constraint int_ne(x[3], x[27]);
constraint int_ne(x[3], x[33]);
constraint int_ne(x[4], x[5]);
constraint int_ne(x[4], x[6]);
constraint int_ne(x[4], x[10]);
constraint int_ne(x[4], x[16]);
constraint int_ne(x[4], x[22]);
constraint int_ne(x[4], x[28]);
constraint int_ne(x[4], x[34]);
constraint int_ne(x[5], x[6]);
constraint int_ne(x[5], x[11]);
constraint int_ne(x[5], x[17]);
constraint int_ne(x[5], x[23]);
constraint int_ne(x[5], x[29]);
constraint int_ne(x[5], x[35]);
constraint int_ne(x[6], x[12]);
constraint int_ne(x[6], x[18]);
constraint int_ne(x[6], x[24]);
constraint int_ne(x[6], x[30]);
constraint int_ne(x[6], x[36]);
constraint int_ne(x[7], x[8]);
constraint int_ne(x[7], x[9]);
constraint int_ne(x[7], x[10]);
constraint int_ne(x[7], x[11]);
constraint int_ne(x[7], x[12]);
constraint int_ne(x[7], x[13]);
constraint int_ne(x[7], x[19]);
constraint int_ne(x[7], x[25]);
constraint int_ne(x[7], x[31]);
constraint int_ne(x[8], x[9]);
constraint int_ne(x[8], x[10]);
constraint int_ne(x[8], x[11]);
constraint int_ne(x[8], x[12]);
constraint int_ne(x[8], x[14]);
constraint int_ne(x[8], x[20]);
constraint int_ne(x[8], x[26]);
constraint int_ne(x[8], x[32]);
constraint int_ne(x[9], x[10]);
constraint int_ne(x[9], x[11]);
constraint int_ne(x[9], x[12]);
constraint int_ne(x[9], x[15]);
constraint int_ne(x[9], x[21]);
constraint int_ne(x[9], x[27]);
constraint int_ne(x[9], x[33]);
constraint int_ne(x[10], x[11]);
constraint int_ne(x[10], x[12]);
constraint int_ne(x[10], x[16]);
constraint int_ne(x[10], x[22]);
constraint int_ne(x[10], x[28]);
constraint int_ne(x[10], x[34]);
constraint int_ne(x[11], x[12]);
constraint int_ne(x[11], x[17]);
constraint int_ne(x[11], x[23]);
constraint int_ne(x[11], x[29]);
constraint int_ne(x[11], x[35]);
constraint int_ne(x[12], x[18]);
constraint int_ne(x[12], x[24]);
constraint int_ne(x[12], x[30]);
constraint int_ne(x[12], x[36]);
constraint int_ne(x[13], x[14]);
constraint int_ne(x[13], x[15]);
constraint int_ne(x[13], x[16]);
constraint int_ne(x[13], x[17]);
constraint int_ne(x[13], x[18]);
constraint int_ne(x[13], x[19]);
constraint int_ne(x[13], x[25]);
constraint int_ne(x[13], x[31]);
constraint int_ne(x[14], x[15]);
constraint int_ne(x[14], x[16]);
constraint int_ne(x[14], x[17]);
constraint int_ne(x[14], x[18]);
constraint int_ne(x[14], x[20]);
constraint int_ne(x[14], x[26]);
constraint int_ne(x[14], x[32]);
constraint int_ne(x[15], x[16]);
constraint int_ne(x[15], x[17]);
constraint int_ne(x[15], x[18]);
constraint int_ne(x[15], x[21]);
constraint int_ne(x[15], x[27]);
constraint int_ne(x[15], x[33]);
constraint int_ne(x[16], x[17]);
constraint int_ne(x[16], x[18]);
constraint int_ne(x[16], x[22]);
constraint int_ne(x[16], x[28]);
constraint int_ne(x[16], x[34]);
constraint int_ne(x[17], x[18]);
constraint int_ne(x[17], x[23]);
constraint int_ne(x[17], x[29]);
constraint int_ne(x[17], x[35]);
constraint int_ne(x[18], x[24]);
constraint int_ne(x[18], x[30]);
constraint int_ne(x[18], x[36]);
constraint int_ne(x[19], x[20]);
constraint int_ne(x[19], x[21]);
constraint int_ne(x[19], x[22]);
constraint int_ne(x[19], x[23]);
constraint int_ne(x[19], x[24]);
constraint int_ne(x[19], x[25]);
constraint int_ne(x[19], x[31]);
constraint int_ne(x[20], x[21]);
constraint int_ne(x[20], x[22]);
constraint int_ne(x[20], x[23]);
constraint int_ne(x[20], x[24]);
constraint int_ne(x[20], x[26]);
constraint int_ne(x[20], x[32]);
constraint int_ne(x[21], x[22]);
constraint int_ne(x[21], x[23]);
constraint int_ne(x[21], x[24]);
constraint int_ne(x[21], x[27]);
constraint int_ne(x[21], x[33]);
constraint int_ne(x[22], x[23]);
constraint int_ne(x[22], x[24]);
constraint int_ne(x[22], x[28]);
constraint int_ne(x[22], x[34]);
constraint int_ne(x[23], x[24]);
constraint int_ne(x[23], x[29]);
constraint int_ne(x[23], x[35]);
constraint int_ne(x[24], x[30]);
constraint int_ne(x[24], x[36]);
constraint int_ne(x[25], x[26]);
constraint int_ne(x[25], x[27]);
constraint int_ne(x[25], x[28]);
constraint int_ne(x[25], x[29]);
constraint int_ne(x[25], x[30]);
constraint int_ne(x[25], x[31]);
constraint int_ne(x[26], x[27]);
constraint int_ne(x[26], x[28]);
constraint int_ne(x[26], x[29]);
constraint int_ne(x[26], x[30]);
constraint int_ne(x[26], x[32]);
constraint int_ne(x[27], x[28]);
constraint int_ne(x[27], x[29]);
constraint int_ne(x[27], x[30]);
constraint int_ne(x[27], x[33]);
constraint int_ne(x[28], x[29]);
constraint int_ne(x[28], x[30]);
constraint int_ne(x[28], x[34]);
constraint int_ne(x[29], x[30]);
constraint int_ne(x[29], x[35]);
constraint int_ne(x[30], x[36]);
constraint int_ne(x[31], x[32]);
constraint int_ne(x[31], x[33]);
constraint int_ne(x[31], x[34]);
constraint int_ne(x[31], x[35]);
constraint int_ne(x[31], x[36]);
constraint int_ne(x[32], x[33]);
constraint int_ne(x[32], x[34]);
constraint int_ne(x[32], x[35]);
constraint int_ne(x[32], x[36]);
constraint int_ne(x[33], x[34]);
constraint int_ne(x[33], x[35]);
constraint int_ne(x[33], x[36]);
constraint int_ne(x[34], x[35]);
constraint int_ne(x[34], x[36]);
constraint int_ne(x[35], x[36]);
solve satisfy;
